(set-logic BV) (define-fun origCir ((n211 Bool) (n196 Bool) (n204 Bool) (n199 Bool) (n187 Bool)) Bool (and n211 (not (and (not (and (and n204 n199) (not n196))) (not n187))))) (synth-fun skel ((n211 Bool) (n196 Bool) (n204 Bool) (n199 Bool) (n187 Bool)) Bool) (declare-var n211 Bool) (declare-var n196 Bool) (declare-var n204 Bool) (declare-var n199 Bool) (declare-var n187 Bool) (constraint (= (origCir n211 n196 n204 n199 n187) (skel n211 n196 n204 n199 n187))) (check-synth)
